************************************************************************
file with basedata            : md226_.bas
initial value random generator: 1753668113
************************************************************************
projects                      :  1
jobs (incl. supersource/sink ):  18
horizon                       :  128
RESOURCES
  - renewable                 :  2   R
  - nonrenewable              :  2   N
  - doubly constrained        :  0   D
************************************************************************
PROJECT INFORMATION:
pronr.  #jobs rel.date duedate tardcost  MPM-Time
    1     16      0       16        8       16
************************************************************************
PRECEDENCE RELATIONS:
jobnr.    #modes  #successors   successors
   1        1          3           2   3   4
   2        3          3           6   9  11
   3        3          3           7  10  11
   4        3          3           5   8  12
   5        3          2           6  17
   6        3          2          15  16
   7        3          2          12  16
   8        3          1          13
   9        3          3          10  13  15
  10        3          2          14  17
  11        3          2          12  13
  12        3          2          15  17
  13        3          1          14
  14        3          1          16
  15        3          1          18
  16        3          1          18
  17        3          1          18
  18        1          0        
************************************************************************
REQUESTS/DURATIONS:
jobnr. mode duration  R 1  R 2  N 1  N 2
------------------------------------------------------------------------
  1      1     0       0    0    0    0
  2      1     1       0    9    5    7
         2     1       9    0    5    7
         3     2       0    9    4    7
  3      1     1       9    0    3    4
         2     5       0    4    2    3
         3     9       6    0    2    2
  4      1     6       9    0    7    7
         2     7       8    0    6    3
         3    10       0    4    3    2
  5      1     1       2    0    7    7
         2     6       0    3    6    6
         3     6       0    6    6    5
  6      1     1       0    8    3    2
         2     2       7    0    3    2
         3    10       6    0    2    1
  7      1     2      10    0    5    7
         2     7       0    7    4    4
         3     7      10    0    5    6
  8      1     2       4    0    4    3
         2     2       0    9    5    3
         3    10       0    9    4    2
  9      1     6       0    7    9    8
         2     6       0    7    6   10
         3    10       0    7    5    8
 10      1     3       7    0    8    8
         2     4       0    6    8    7
         3     4       6    0    6    7
 11      1     2      10    0    5    6
         2     6       7    0    2    3
         3     6       0    2    3    4
 12      1     3       0    9    6    7
         2     8       0    9    6    6
         3     9       0    8    5    5
 13      1     5       8    0   10    7
         2     9       6    0    3    6
         3     9       4    0    6    6
 14      1     1       7    0    9    8
         2     2       6    0    4    8
         3    10       6    0    4    7
 15      1     1       0    5    7   10
         2     4       4    0    5    6
         3     8       2    0    5    4
 16      1     1       0   10    7    8
         2     8       0    9    6    8
         3    10       0    9    4    4
 17      1     6       0    6   10    7
         2     6       7    0   10    7
         3     8       0    6    9    6
 18      1     0       0    0    0    0
************************************************************************
RESOURCEAVAILABILITIES:
  R 1  R 2  N 1  N 2
   18   20   78   82
************************************************************************
